experiment/data/lkh-res/Vrp-Set-X-n167/Vrp-Set-X-n167-lkh/0.lkh1.vrp
NAME : 0
COMMENT : CVRP Instance
TYPE : CVRP
DIMENSION : 167
EDGE_WEIGHT_TYPE : EUC_2D
CAPACITY : 133
NODE_COORD_SECTION
1	0	0
2	83200	88500
3	77700	63200
4	40600	25700
5	62000	46700
6	5800	7000
7	11600	42300
8	10400	44500
9	71400	72200
10	18800	50300
11	85600	59400
12	93200	44800
13	74900	98200
14	81800	88900
15	37700	49300
16	33700	41900
17	77200	60500
18	37300	44800
19	51900	11200
20	84900	27400
21	53300	83900
22	61000	41700
23	6900	58300
24	57300	19500
25	98800	32400
26	11000	55000
27	27100	67600
28	69400	13000
29	79100	59000
30	78500	61400
31	32100	30500
32	97400	29200
33	80400	55600
34	37200	89300
35	86700	2300
36	25200	66000
37	58800	3400
38	93900	68500
39	51100	52400
40	94800	47900
41	91200	22700
42	38000	80700
43	30900	14100
44	55800	75900
45	24100	22500
46	92000	8700
47	26900	35100
48	15600	77600
49	25100	51200
50	60800	87400
51	85300	26900
52	89700	57200
53	31600	46100
54	82500	52900
55	47400	15200
56	51000	45300
57	1500	83800
58	77800	92800
59	100	89600
60	80400	49200
61	63000	29400
62	200	96600
63	25400	53900
64	16700	2800
65	64600	87900
66	86300	4900
67	50800	75900
68	6400	16500
69	24900	52500
70	4900	60500
71	99000	37500
72	53900	27200
73	83300	56100
74	8400	57100
75	37800	84700
76	71300	48500
77	48900	20400
78	81500	90500
79	30700	77400
80	28600	20400
81	51700	6100
82	91800	7400
83	86400	39700
84	3500	59700
85	91800	63200
86	39500	57000
87	8700	9700
88	31800	9400
89	89300	80500
90	8200	39200
91	47100	89900
92	56700	89500
93	34900	36000
94	13800	56000
95	45900	96200
96	79500	46100
97	39800	46700
98	55300	60600
99	95200	8900
100	9200	2200
101	85300	18800
102	64300	8000
103	80100	22700
104	12700	7400
105	72700	97500
106	55200	4800
107	31100	95900
108	64700	87600
109	74200	16800
110	75500	58900
111	74100	800
112	97500	95400
113	82000	50200
114	55200	30000
115	80200	74400
116	51500	59900
117	58500	60000
118	57300	79300
119	15900	66900
120	24800	36900
121	86800	47600
122	27500	19400
123	93000	93300
124	23300	58700
125	19800	3500
126	44400	64800
127	18400	82200
128	10700	84000
129	31200	57300
130	69400	81300
131	44600	26400
132	58600	48300
133	64800	27400
134	96700	36200
135	19400	33000
136	96300	13500
137	84600	71700
138	3200	48700
139	35800	72800
140	60800	18200
141	25000	36700
142	98900	39200
143	82000	30700
144	47300	27400
145	40800	8400
146	76200	80000
147	91700	56000
148	58600	83000
149	57100	61600
150	60600	44500
151	93900	11600
152	55100	52800
153	19100	10200
154	60500	58300
155	62700	24900
156	5300	81900
157	42700	57100
158	16800	47900
159	67900	37100
160	35400	41500
161	63800	44400
162	53500	91800
163	24300	53500
164	79600	79600
165	88600	3200
166	27200	69900
167	42100	93500
DEMAND_SECTION
1	0
2	6
3	9
4	7
5	5
6	9
7	5
8	9
9	7
10	10
11	8
12	6
13	5
14	9
15	8
16	9
17	10
18	5
19	7
20	8
21	5
22	9
23	9
24	7
25	5
26	7
27	8
28	5
29	10
30	9
31	9
32	9
33	9
34	7
35	9
36	5
37	10
38	6
39	9
40	9
41	5
42	6
43	10
44	6
45	6
46	8
47	6
48	6
49	10
50	9
51	7
52	8
53	6
54	6
55	6
56	8
57	5
58	10
59	6
60	9
61	9
62	9
63	7
64	9
65	6
66	7
67	5
68	9
69	6
70	5
71	6
72	9
73	6
74	8
75	8
76	5
77	7
78	7
79	7
80	10
81	5
82	10
83	8
84	7
85	9
86	10
87	8
88	9
89	8
90	7
91	10
92	7
93	9
94	6
95	5
96	8
97	8
98	6
99	7
100	10
101	6
102	9
103	5
104	9
105	9
106	5
107	10
108	5
109	6
110	10
111	7
112	10
113	8
114	8
115	5
116	8
117	7
118	6
119	9
120	9
121	7
122	7
123	10
124	9
125	8
126	9
127	8
128	7
129	8
130	7
131	7
132	5
133	7
134	5
135	5
136	9
137	7
138	5
139	5
140	9
141	10
142	10
143	5
144	7
145	5
146	6
147	5
148	7
149	6
150	7
151	7
152	9
153	6
154	10
155	7
156	10
157	7
158	7
159	7
160	5
161	6
162	6
163	9
164	9
165	6
166	10
167	9
DEPOT_SECTION
1
-1
EOF
