experiment/data/lkh-res/Vrp-Set-X-n167/Vrp-Set-X-n167-lkh/0.lkh1.log
PARAMETER_FILE = baseline_results/cvrp_lkh/Vrp-Set-X-n167/Vrp-Set-X-n167-lkh/0.lkh1.par
Reading PROBLEM_FILE: "baseline_results/cvrp_lkh/Vrp-Set-X-n167/Vrp-Set-X-n167-lkh/0.lkh1.vrp" ... done
ASCENT_CANDIDATES = 50
BACKBONE_TRIALS = 0
BACKTRACKING = NO
# BWTSP =
# CANDIDATE_FILE =
CANDIDATE_SET_TYPE = ALPHA
# DISTANCE =
DEPOT = 1
# EDGE_FILE =
EXCESS = 0.00598802
EXTERNAL_SALESMEN = 0
EXTRA_CANDIDATES = 0 
EXTRA_CANDIDATE_SET_TYPE = QUADRANT
GAIN23 = NO
GAIN_CRITERION = YES
INITIAL_PERIOD = 100
INITIAL_STEP_SIZE = 1
INITIAL_TOUR_ALGORITHM = WALK
# INITIAL_TOUR_FILE = 
INITIAL_TOUR_FRACTION = 1.000
# INPUT_TOUR_FILE = 
KICK_TYPE = 4
KICKS = 1
# MAX_BREADTH =
MAKESPAN = NO
MAX_CANDIDATES = 5 
MAX_SWAPS = 0
MAX_TRIALS = 10000
# MERGE_TOUR_FILE =
MOVE_TYPE = 5 SPECIAL
MTSP_MIN_SIZE = 1
MTSP_MAX_SIZE = 166
# MTSP_SOLUTION_FILE = 
# NONSEQUENTIAL_MOVE_TYPE = 5
# OPTIMUM =
OUTPUT_TOUR_FILE = baseline_results/cvrp_lkh/Vrp-Set-X-n167/Vrp-Set-X-n167-lkh/0.lkh1.tour
PATCHING_A = 1 
PATCHING_C = 0 
# PI_FILE = 
POPMUSIC_INITIAL_TOUR = NO
POPMUSIC_MAX_NEIGHBORS = 5
POPMUSIC_SAMPLE_SIZE = 10
POPMUSIC_SOLUTIONS = 50
POPMUSIC_TRIALS = 1
POPULATION_SIZE = 10
PRECISION = 100
PROBLEM_FILE = baseline_results/cvrp_lkh/Vrp-Set-X-n167/Vrp-Set-X-n167-lkh/0.lkh1.vrp
RECOMBINATION = IPT
RESTRICTED_SEARCH = YES
RUNS = 1
SALESMEN = 10
SCALE = 1
SEED = 1234
# SINTEF_SOLUTION_FILE = 
STOP_AT_OPTIMUM = YES
SUBGRADIENT = YES
# SUBPROBLEM_SIZE =
# SUBPROBLEM_TOUR_FILE = 
SUBSEQUENT_MOVE_TYPE = 5 SPECIAL
SUBSEQUENT_PATCHING = YES
# TIME_LIMIT =
# TOTAL_TIME_LIMIT =
# TOUR_FILE = 
TRACE_LEVEL = 1
VEHICLES = 10

Lower bound = 1257973.9, Ascent time = 0.05 sec.
Cand.min = 2, Cand.avg = 4.9, Cand.max = 5
Preprocessing time = 0.05 sec.
* 1: Cost = 0_2260316, Time = 0.03 sec. 
Writing OUTPUT_TOUR_FILE: "baseline_results/cvrp_lkh/Vrp-Set-X-n167/Vrp-Set-X-n167-lkh/0.lkh1.tour" ... done
* 2: Cost = 0_2243845, Time = 0.03 sec. 
Writing OUTPUT_TOUR_FILE: "baseline_results/cvrp_lkh/Vrp-Set-X-n167/Vrp-Set-X-n167-lkh/0.lkh1.tour" ... done
* 15: Cost = 0_2237362, Time = 0.06 sec. 
Writing OUTPUT_TOUR_FILE: "baseline_results/cvrp_lkh/Vrp-Set-X-n167/Vrp-Set-X-n167-lkh/0.lkh1.tour" ... done
* 18: Cost = 0_2219276, Time = 0.08 sec. 
Writing OUTPUT_TOUR_FILE: "baseline_results/cvrp_lkh/Vrp-Set-X-n167/Vrp-Set-X-n167-lkh/0.lkh1.tour" ... done
* 21: Cost = 0_2192899, Time = 0.10 sec. 
Writing OUTPUT_TOUR_FILE: "baseline_results/cvrp_lkh/Vrp-Set-X-n167/Vrp-Set-X-n167-lkh/0.lkh1.tour" ... done
* 23: Cost = 0_2189069, Time = 0.10 sec. 
Writing OUTPUT_TOUR_FILE: "baseline_results/cvrp_lkh/Vrp-Set-X-n167/Vrp-Set-X-n167-lkh/0.lkh1.tour" ... done
* 25: Cost = 0_2185755, Time = 0.11 sec. 
Writing OUTPUT_TOUR_FILE: "baseline_results/cvrp_lkh/Vrp-Set-X-n167/Vrp-Set-X-n167-lkh/0.lkh1.tour" ... done
* 32: Cost = 0_2179987, Time = 0.18 sec. 
Writing OUTPUT_TOUR_FILE: "baseline_results/cvrp_lkh/Vrp-Set-X-n167/Vrp-Set-X-n167-lkh/0.lkh1.tour" ... done
* 33: Cost = 0_2170943, Time = 0.18 sec. 
Writing OUTPUT_TOUR_FILE: "baseline_results/cvrp_lkh/Vrp-Set-X-n167/Vrp-Set-X-n167-lkh/0.lkh1.tour" ... done
* 35: Cost = 0_2169172, Time = 0.18 sec. 
Writing OUTPUT_TOUR_FILE: "baseline_results/cvrp_lkh/Vrp-Set-X-n167/Vrp-Set-X-n167-lkh/0.lkh1.tour" ... done
* 41: Cost = 0_2162049, Time = 0.21 sec. 
Writing OUTPUT_TOUR_FILE: "baseline_results/cvrp_lkh/Vrp-Set-X-n167/Vrp-Set-X-n167-lkh/0.lkh1.tour" ... done
* 44: Cost = 0_2148626, Time = 0.23 sec. 
Writing OUTPUT_TOUR_FILE: "baseline_results/cvrp_lkh/Vrp-Set-X-n167/Vrp-Set-X-n167-lkh/0.lkh1.tour" ... done
* 56: Cost = 0_2148051, Time = 0.30 sec. 
Writing OUTPUT_TOUR_FILE: "baseline_results/cvrp_lkh/Vrp-Set-X-n167/Vrp-Set-X-n167-lkh/0.lkh1.tour" ... done
* 65: Cost = 0_2128835, Time = 0.34 sec. 
Writing OUTPUT_TOUR_FILE: "baseline_results/cvrp_lkh/Vrp-Set-X-n167/Vrp-Set-X-n167-lkh/0.lkh1.tour" ... done
* 70: Cost = 0_2128719, Time = 0.36 sec. 
Writing OUTPUT_TOUR_FILE: "baseline_results/cvrp_lkh/Vrp-Set-X-n167/Vrp-Set-X-n167-lkh/0.lkh1.tour" ... done
* 99: Cost = 0_2123942, Time = 0.50 sec. 
Writing OUTPUT_TOUR_FILE: "baseline_results/cvrp_lkh/Vrp-Set-X-n167/Vrp-Set-X-n167-lkh/0.lkh1.tour" ... done
* 137: Cost = 0_2123791, Time = 0.68 sec. 
Writing OUTPUT_TOUR_FILE: "baseline_results/cvrp_lkh/Vrp-Set-X-n167/Vrp-Set-X-n167-lkh/0.lkh1.tour" ... done
* 145: Cost = 0_2123504, Time = 0.73 sec. 
Writing OUTPUT_TOUR_FILE: "baseline_results/cvrp_lkh/Vrp-Set-X-n167/Vrp-Set-X-n167-lkh/0.lkh1.tour" ... done
* 146: Cost = 0_2123483, Time = 0.73 sec. 
Writing OUTPUT_TOUR_FILE: "baseline_results/cvrp_lkh/Vrp-Set-X-n167/Vrp-Set-X-n167-lkh/0.lkh1.tour" ... done
* 175: Cost = 0_2123252, Time = 0.81 sec. 
Writing OUTPUT_TOUR_FILE: "baseline_results/cvrp_lkh/Vrp-Set-X-n167/Vrp-Set-X-n167-lkh/0.lkh1.tour" ... done
* 179: Cost = 0_2123145, Time = 0.84 sec. 
Writing OUTPUT_TOUR_FILE: "baseline_results/cvrp_lkh/Vrp-Set-X-n167/Vrp-Set-X-n167-lkh/0.lkh1.tour" ... done
* 198: Cost = 0_2122319, Time = 0.95 sec. 
Writing OUTPUT_TOUR_FILE: "baseline_results/cvrp_lkh/Vrp-Set-X-n167/Vrp-Set-X-n167-lkh/0.lkh1.tour" ... done
* 199: Cost = 0_2119677, Time = 0.96 sec. 
Writing OUTPUT_TOUR_FILE: "baseline_results/cvrp_lkh/Vrp-Set-X-n167/Vrp-Set-X-n167-lkh/0.lkh1.tour" ... done
* 206: Cost = 0_2118458, Time = 1.01 sec. 
Writing OUTPUT_TOUR_FILE: "baseline_results/cvrp_lkh/Vrp-Set-X-n167/Vrp-Set-X-n167-lkh/0.lkh1.tour" ... done
* 210: Cost = 0_2110614, Time = 1.04 sec. 
Writing OUTPUT_TOUR_FILE: "baseline_results/cvrp_lkh/Vrp-Set-X-n167/Vrp-Set-X-n167-lkh/0.lkh1.tour" ... done
* 216: Cost = 0_2109092, Time = 1.07 sec. 
Writing OUTPUT_TOUR_FILE: "baseline_results/cvrp_lkh/Vrp-Set-X-n167/Vrp-Set-X-n167-lkh/0.lkh1.tour" ... done
* 220: Cost = 0_2108748, Time = 1.08 sec. 
Writing OUTPUT_TOUR_FILE: "baseline_results/cvrp_lkh/Vrp-Set-X-n167/Vrp-Set-X-n167-lkh/0.lkh1.tour" ... done
* 227: Cost = 0_2108529, Time = 1.11 sec. 
Writing OUTPUT_TOUR_FILE: "baseline_results/cvrp_lkh/Vrp-Set-X-n167/Vrp-Set-X-n167-lkh/0.lkh1.tour" ... done
* 268: Cost = 0_2105887, Time = 1.31 sec. 
Writing OUTPUT_TOUR_FILE: "baseline_results/cvrp_lkh/Vrp-Set-X-n167/Vrp-Set-X-n167-lkh/0.lkh1.tour" ... done
* 272: Cost = 0_2093948, Time = 1.32 sec. 
Writing OUTPUT_TOUR_FILE: "baseline_results/cvrp_lkh/Vrp-Set-X-n167/Vrp-Set-X-n167-lkh/0.lkh1.tour" ... done
* 316: Cost = 0_2086314, Time = 1.46 sec. 
Writing OUTPUT_TOUR_FILE: "baseline_results/cvrp_lkh/Vrp-Set-X-n167/Vrp-Set-X-n167-lkh/0.lkh1.tour" ... done
* 321: Cost = 0_2082637, Time = 1.48 sec. 
Writing OUTPUT_TOUR_FILE: "baseline_results/cvrp_lkh/Vrp-Set-X-n167/Vrp-Set-X-n167-lkh/0.lkh1.tour" ... done
* 331: Cost = 0_2080983, Time = 1.54 sec. 
Writing OUTPUT_TOUR_FILE: "baseline_results/cvrp_lkh/Vrp-Set-X-n167/Vrp-Set-X-n167-lkh/0.lkh1.tour" ... done
* 339: Cost = 0_2080759, Time = 1.59 sec. 
Writing OUTPUT_TOUR_FILE: "baseline_results/cvrp_lkh/Vrp-Set-X-n167/Vrp-Set-X-n167-lkh/0.lkh1.tour" ... done
* 340: Cost = 0_2080248, Time = 1.60 sec. 
Writing OUTPUT_TOUR_FILE: "baseline_results/cvrp_lkh/Vrp-Set-X-n167/Vrp-Set-X-n167-lkh/0.lkh1.tour" ... done
* 360: Cost = 0_2078110, Time = 1.75 sec. 
Writing OUTPUT_TOUR_FILE: "baseline_results/cvrp_lkh/Vrp-Set-X-n167/Vrp-Set-X-n167-lkh/0.lkh1.tour" ... done
* 365: Cost = 0_2076267, Time = 1.76 sec. 
Writing OUTPUT_TOUR_FILE: "baseline_results/cvrp_lkh/Vrp-Set-X-n167/Vrp-Set-X-n167-lkh/0.lkh1.tour" ... done
* 502: Cost = 0_2075709, Time = 2.51 sec. 
Writing OUTPUT_TOUR_FILE: "baseline_results/cvrp_lkh/Vrp-Set-X-n167/Vrp-Set-X-n167-lkh/0.lkh1.tour" ... done
* 573: Cost = 0_2074768, Time = 2.95 sec. 
Writing OUTPUT_TOUR_FILE: "baseline_results/cvrp_lkh/Vrp-Set-X-n167/Vrp-Set-X-n167-lkh/0.lkh1.tour" ... done
* 574: Cost = 0_2074019, Time = 2.96 sec. 
Writing OUTPUT_TOUR_FILE: "baseline_results/cvrp_lkh/Vrp-Set-X-n167/Vrp-Set-X-n167-lkh/0.lkh1.tour" ... done
* 582: Cost = 0_2073449, Time = 2.98 sec. 
Writing OUTPUT_TOUR_FILE: "baseline_results/cvrp_lkh/Vrp-Set-X-n167/Vrp-Set-X-n167-lkh/0.lkh1.tour" ... done
* 585: Cost = 0_2073153, Time = 2.99 sec. 
Writing OUTPUT_TOUR_FILE: "baseline_results/cvrp_lkh/Vrp-Set-X-n167/Vrp-Set-X-n167-lkh/0.lkh1.tour" ... done
* 597: Cost = 0_2071657, Time = 3.07 sec. 
Writing OUTPUT_TOUR_FILE: "baseline_results/cvrp_lkh/Vrp-Set-X-n167/Vrp-Set-X-n167-lkh/0.lkh1.tour" ... done
* 610: Cost = 0_2069721, Time = 3.12 sec. 
Writing OUTPUT_TOUR_FILE: "baseline_results/cvrp_lkh/Vrp-Set-X-n167/Vrp-Set-X-n167-lkh/0.lkh1.tour" ... done
* 721: Cost = 0_2068792, Time = 3.79 sec. 
Writing OUTPUT_TOUR_FILE: "baseline_results/cvrp_lkh/Vrp-Set-X-n167/Vrp-Set-X-n167-lkh/0.lkh1.tour" ... done
* 737: Cost = 0_2068526, Time = 3.87 sec. 
Writing OUTPUT_TOUR_FILE: "baseline_results/cvrp_lkh/Vrp-Set-X-n167/Vrp-Set-X-n167-lkh/0.lkh1.tour" ... done
* 804: Cost = 0_2063531, Time = 4.14 sec. 
Writing OUTPUT_TOUR_FILE: "baseline_results/cvrp_lkh/Vrp-Set-X-n167/Vrp-Set-X-n167-lkh/0.lkh1.tour" ... done
* 808: Cost = 0_2063259, Time = 4.16 sec. 
Writing OUTPUT_TOUR_FILE: "baseline_results/cvrp_lkh/Vrp-Set-X-n167/Vrp-Set-X-n167-lkh/0.lkh1.tour" ... done
* 1058: Cost = 0_2062250, Time = 5.42 sec. 
Writing OUTPUT_TOUR_FILE: "baseline_results/cvrp_lkh/Vrp-Set-X-n167/Vrp-Set-X-n167-lkh/0.lkh1.tour" ... done
* 2251: Cost = 0_2061777, Time = 11.79 sec. 
Writing OUTPUT_TOUR_FILE: "baseline_results/cvrp_lkh/Vrp-Set-X-n167/Vrp-Set-X-n167-lkh/0.lkh1.tour" ... done
Population:
  1: 0_2061777
Run 1: Cost = 0_2061777, Time = 53.55 sec. 

Successes/Runs = 0/1 
Cost.min = 2061777, Cost.avg = 2061777.00, Cost.max = 2061777
Gap.min = 0.0000%, Gap.avg = 0.0000%, Gap.max = 0.0000%
Penalty.min = 0, Penalty.avg = 0.00, Penalty.max = 0
Trials.min = 10000, Trials.avg = 10000.0, Trials.max = 10000
Time.min = 53.55 sec., Time.avg = 53.55 sec., Time.max = 53.55 sec.
Time.total = 53.60 sec.
  Size.min = 5, Size.max = 19, Penalty = 0
  Cost.min = 44265, Cost.max = 322688, Cost.sum = 2061777
Best CVRP solution:
  Cost = 0_2061777

