experiment/data/lkh-res/Vrp-Set-X-n167/Vrp-Set-X-n167-lkh/0.lkh1.tour
NAME : 0.2061777.tour
COMMENT : Length = 2061777
COMMENT : Found by LKH-3 [Keld Helsgaun] Tue Apr  9 03:29:35 2024
TYPE : TOUR
DIMENSION : 176
TOUR_SECTION
1
81
106
37
111
66
35
165
82
46
99
151
136
101
103
109
28
102
19
145
168
100
64
125
104
6
176
22
150
161
76
96
60
113
54
33
29
30
3
17
110
5
132
56
171
138
74
23
84
70
156
57
59
62
128
127
48
119
94
26
8
90
68
172
44
118
130
105
13
58
78
14
2
123
112
89
38
137
115
164
146
9
170
143
20
51
41
32
25
134
71
142
12
40
147
52
85
11
73
121
83
159
175
88
43
55
77
24
140
155
133
61
114
72
144
131
4
80
122
153
173
7
158
10
124
36
166
27
129
63
163
69
49
120
141
47
135
87
169
16
15
86
157
116
98
149
117
154
152
39
97
18
160
93
31
45
174
53
126
67
21
148
108
65
50
92
162
91
95
167
107
34
75
42
79
139
-1
EOF
